\ Model taskAssignment
\ LP format - for model browsing. Use MPS format to capture full model detail.
Minimize
  open[0] + open[1] + open[2] + open[3] + open[4] + open[5] + open[6]
   + open[7] + 2.677086583046236 assign[0,0]
   + 2.677086583046236 assign[0,1] + 2.677086583046236 assign[0,2]
   + 2.677086583046236 assign[0,3] + 2.677086583046236 assign[0,4]
   + 2.677086583046236 assign[0,5] + 2.677086583046236 assign[0,6]
   + 2.677086583046236 assign[0,7] + 2.677086583046236 assign[0,8]
   + 2.677086583046236 assign[0,9] + 0.6425182402077292 assign[0,10]
   + 0.5718844837017594 assign[0,11] + 6.442998740348334 assign[0,12]
   + 4.14762642644396 assign[0,13] + 0.6166861696427328 assign[0,14]
   + 1.924908895648131 assign[0,15] + 3.002976045305885 assign[0,16]
   + 4.091709935329567 assign[0,17] + 1.975430677421035 assign[0,18]
   + 3.354126216413229 assign[0,19] + 2.677086583046236 assign[1,0]
   + 2.677086583046236 assign[1,1] + 2.677086583046236 assign[1,2]
   + 2.677086583046236 assign[1,3] + 2.677086583046236 assign[1,4]
   + 2.677086583046236 assign[1,5] + 2.677086583046236 assign[1,6]
   + 2.677086583046236 assign[1,7] + 2.677086583046236 assign[1,8]
   + 2.677086583046236 assign[1,9] + 0.6425182402077292 assign[1,10]
   + 0.5718844837017594 assign[1,11] + 6.442998740348334 assign[1,12]
   + 4.14762642644396 assign[1,13] + 0.6166861696427328 assign[1,14]
   + 1.924908895648131 assign[1,15] + 3.002976045305885 assign[1,16]
   + 4.091709935329567 assign[1,17] + 1.975430677421035 assign[1,18]
   + 3.354126216413229 assign[1,19] + 1.837815739127957 assign[2,0]
   + 1.837815739127957 assign[2,1] + 1.837815739127957 assign[2,2]
   + 1.837815739127957 assign[2,3] + 1.837815739127957 assign[2,4]
   + 1.837815739127957 assign[2,5] + 1.837815739127957 assign[2,6]
   + 1.837815739127957 assign[2,7] + 1.837815739127957 assign[2,8]
   + 1.837815739127957 assign[2,9] + 1.802446276862674 assign[2,10]
   + 0.3847796780225979 assign[2,11] + 3.50310375645275 assign[2,12]
   + 2.083559246302353 assign[2,13] + 1.748234198309548 assign[2,14]
   + 2.037573309396092 assign[2,15] + 3.603571254367059 assign[2,16]
   + 0.8443728486612562 assign[2,17] + 2.370516812905241 assign[2,18]
   + 1e-08 assign[2,19] + 1.837815739127957 assign[3,0]
   + 1.837815739127957 assign[3,1] + 1.837815739127957 assign[3,2]
   + 1.837815739127957 assign[3,3] + 1.837815739127957 assign[3,4]
   + 1.837815739127957 assign[3,5] + 1.837815739127957 assign[3,6]
   + 1.837815739127957 assign[3,7] + 1.837815739127957 assign[3,8]
   + 1.837815739127957 assign[3,9] + 1.802446276862674 assign[3,10]
   + 0.3847796780225979 assign[3,11] + 3.50310375645275 assign[3,12]
   + 2.083559246302353 assign[3,13] + 1.748234198309548 assign[3,14]
   + 2.037573309396092 assign[3,15] + 3.603571254367059 assign[3,16]
   + 0.8443728486612562 assign[3,17] + 2.370516812905241 assign[3,18]
   + 1e-08 assign[3,19] + 2.595796788108113 assign[4,0]
   + 2.595796788108113 assign[4,1] + 2.595796788108113 assign[4,2]
   + 2.595796788108113 assign[4,3] + 2.595796788108113 assign[4,4]
   + 2.595796788108113 assign[4,5] + 2.595796788108113 assign[4,6]
   + 2.595796788108113 assign[4,7] + 2.595796788108113 assign[4,8]
   + 2.595796788108113 assign[4,9] + 1.070200496087372 assign[4,10]
   + 0.6718308837096106 assign[4,11] + 4.995453689628318 assign[4,12]
   + 2.590128290420383 assign[4,13] + 1.023371527893963 assign[4,14]
   + 3.423533427955485 assign[4,15] + 6.005952090611772 assign[4,16]
   + 1.819024368133392 assign[4,17] + 3.950861354842072 assign[4,18]
   + 0.407611751798762 assign[4,19] + 2.595796788108113 assign[5,0]
   + 2.595796788108113 assign[5,1] + 2.595796788108113 assign[5,2]
   + 2.595796788108113 assign[5,3] + 2.595796788108113 assign[5,4]
   + 2.595796788108113 assign[5,5] + 2.595796788108113 assign[5,6]
   + 2.595796788108113 assign[5,7] + 2.595796788108113 assign[5,8]
   + 2.595796788108113 assign[5,9] + 1.070200496087372 assign[5,10]
   + 0.6718308837096106 assign[5,11] + 4.995453689628318 assign[5,12]
   + 2.590128290420383 assign[5,13] + 1.023371527893963 assign[5,14]
   + 3.423533427955485 assign[5,15] + 6.005952090611772 assign[5,16]
   + 1.819024368133392 assign[5,17] + 3.950861354842072 assign[5,18]
   + 0.407611751798762 assign[5,19] + 2.595796788108113 assign[6,0]
   + 2.595796788108113 assign[6,1] + 2.595796788108113 assign[6,2]
   + 2.595796788108113 assign[6,3] + 2.595796788108113 assign[6,4]
   + 2.595796788108113 assign[6,5] + 2.595796788108113 assign[6,6]
   + 2.595796788108113 assign[6,7] + 2.595796788108113 assign[6,8]
   + 2.595796788108113 assign[6,9] + 1.070200496087372 assign[6,10]
   + 0.6718308837096106 assign[6,11] + 4.995453689628318 assign[6,12]
   + 2.590128290420383 assign[6,13] + 1.023371527893963 assign[6,14]
   + 3.423533427955485 assign[6,15] + 6.005952090611772 assign[6,16]
   + 1.819024368133392 assign[6,17] + 3.950861354842072 assign[6,18]
   + 0.407611751798762 assign[6,19] + 2.595796788108113 assign[7,0]
   + 2.595796788108113 assign[7,1] + 2.595796788108113 assign[7,2]
   + 2.595796788108113 assign[7,3] + 2.595796788108113 assign[7,4]
   + 2.595796788108113 assign[7,5] + 2.595796788108113 assign[7,6]
   + 2.595796788108113 assign[7,7] + 2.595796788108113 assign[7,8]
   + 2.595796788108113 assign[7,9] + 1.070200496087372 assign[7,10]
   + 0.6718308837096106 assign[7,11] + 4.995453689628318 assign[7,12]
   + 2.590128290420383 assign[7,13] + 1.023371527893963 assign[7,14]
   + 3.423533427955485 assign[7,15] + 6.005952090611772 assign[7,16]
   + 1.819024368133392 assign[7,17] + 3.950861354842072 assign[7,18]
   + 0.407611751798762 assign[7,19] + 10 slack[0] + 10 slack[1]
   + 10 slack[2] + 10 slack[3] + 10 slack[4] + 10 slack[5] + 10 slack[6]
   + 10 slack[7]
Subject To
 Capacity[0]: - open[0] + 2.677086583046236 assign[0,0]
   + 2.677086583046236 assign[0,1] + 2.677086583046236 assign[0,2]
   + 2.677086583046236 assign[0,3] + 2.677086583046236 assign[0,4]
   + 2.677086583046236 assign[0,5] + 2.677086583046236 assign[0,6]
   + 2.677086583046236 assign[0,7] + 2.677086583046236 assign[0,8]
   + 2.677086583046236 assign[0,9] + 0.6425182402077292 assign[0,10]
   + 0.5718844837017594 assign[0,11] + 6.442998740348334 assign[0,12]
   + 4.14762642644396 assign[0,13] + 0.6166861696427328 assign[0,14]
   + 1.924908895648131 assign[0,15] + 3.002976045305885 assign[0,16]
   + 4.091709935329567 assign[0,17] + 1.975430677421035 assign[0,18]
   + 3.354126216413229 assign[0,19] - slack[0] <= 0
 Capacity[1]: - open[1] + 2.677086583046236 assign[1,0]
   + 2.677086583046236 assign[1,1] + 2.677086583046236 assign[1,2]
   + 2.677086583046236 assign[1,3] + 2.677086583046236 assign[1,4]
   + 2.677086583046236 assign[1,5] + 2.677086583046236 assign[1,6]
   + 2.677086583046236 assign[1,7] + 2.677086583046236 assign[1,8]
   + 2.677086583046236 assign[1,9] + 0.6425182402077292 assign[1,10]
   + 0.5718844837017594 assign[1,11] + 6.442998740348334 assign[1,12]
   + 4.14762642644396 assign[1,13] + 0.6166861696427328 assign[1,14]
   + 1.924908895648131 assign[1,15] + 3.002976045305885 assign[1,16]
   + 4.091709935329567 assign[1,17] + 1.975430677421035 assign[1,18]
   + 3.354126216413229 assign[1,19] - slack[1] <= 0
 Capacity[2]: - open[2] + 1.837815739127957 assign[2,0]
   + 1.837815739127957 assign[2,1] + 1.837815739127957 assign[2,2]
   + 1.837815739127957 assign[2,3] + 1.837815739127957 assign[2,4]
   + 1.837815739127957 assign[2,5] + 1.837815739127957 assign[2,6]
   + 1.837815739127957 assign[2,7] + 1.837815739127957 assign[2,8]
   + 1.837815739127957 assign[2,9] + 1.802446276862674 assign[2,10]
   + 0.3847796780225979 assign[2,11] + 3.50310375645275 assign[2,12]
   + 2.083559246302353 assign[2,13] + 1.748234198309548 assign[2,14]
   + 2.037573309396092 assign[2,15] + 3.603571254367059 assign[2,16]
   + 0.8443728486612562 assign[2,17] + 2.370516812905241 assign[2,18]
   + 1e-08 assign[2,19] - slack[2] <= 0
 Capacity[3]: - open[3] + 1.837815739127957 assign[3,0]
   + 1.837815739127957 assign[3,1] + 1.837815739127957 assign[3,2]
   + 1.837815739127957 assign[3,3] + 1.837815739127957 assign[3,4]
   + 1.837815739127957 assign[3,5] + 1.837815739127957 assign[3,6]
   + 1.837815739127957 assign[3,7] + 1.837815739127957 assign[3,8]
   + 1.837815739127957 assign[3,9] + 1.802446276862674 assign[3,10]
   + 0.3847796780225979 assign[3,11] + 3.50310375645275 assign[3,12]
   + 2.083559246302353 assign[3,13] + 1.748234198309548 assign[3,14]
   + 2.037573309396092 assign[3,15] + 3.603571254367059 assign[3,16]
   + 0.8443728486612562 assign[3,17] + 2.370516812905241 assign[3,18]
   + 1e-08 assign[3,19] - slack[3] <= 0
 Capacity[4]: - open[4] + 2.595796788108113 assign[4,0]
   + 2.595796788108113 assign[4,1] + 2.595796788108113 assign[4,2]
   + 2.595796788108113 assign[4,3] + 2.595796788108113 assign[4,4]
   + 2.595796788108113 assign[4,5] + 2.595796788108113 assign[4,6]
   + 2.595796788108113 assign[4,7] + 2.595796788108113 assign[4,8]
   + 2.595796788108113 assign[4,9] + 1.070200496087372 assign[4,10]
   + 0.6718308837096106 assign[4,11] + 4.995453689628318 assign[4,12]
   + 2.590128290420383 assign[4,13] + 1.023371527893963 assign[4,14]
   + 3.423533427955485 assign[4,15] + 6.005952090611772 assign[4,16]
   + 1.819024368133392 assign[4,17] + 3.950861354842072 assign[4,18]
   + 0.407611751798762 assign[4,19] - slack[4] <= 0
 Capacity[5]: - open[5] + 2.595796788108113 assign[5,0]
   + 2.595796788108113 assign[5,1] + 2.595796788108113 assign[5,2]
   + 2.595796788108113 assign[5,3] + 2.595796788108113 assign[5,4]
   + 2.595796788108113 assign[5,5] + 2.595796788108113 assign[5,6]
   + 2.595796788108113 assign[5,7] + 2.595796788108113 assign[5,8]
   + 2.595796788108113 assign[5,9] + 1.070200496087372 assign[5,10]
   + 0.6718308837096106 assign[5,11] + 4.995453689628318 assign[5,12]
   + 2.590128290420383 assign[5,13] + 1.023371527893963 assign[5,14]
   + 3.423533427955485 assign[5,15] + 6.005952090611772 assign[5,16]
   + 1.819024368133392 assign[5,17] + 3.950861354842072 assign[5,18]
   + 0.407611751798762 assign[5,19] - slack[5] <= 0
 Capacity[6]: - open[6] + 2.595796788108113 assign[6,0]
   + 2.595796788108113 assign[6,1] + 2.595796788108113 assign[6,2]
   + 2.595796788108113 assign[6,3] + 2.595796788108113 assign[6,4]
   + 2.595796788108113 assign[6,5] + 2.595796788108113 assign[6,6]
   + 2.595796788108113 assign[6,7] + 2.595796788108113 assign[6,8]
   + 2.595796788108113 assign[6,9] + 1.070200496087372 assign[6,10]
   + 0.6718308837096106 assign[6,11] + 4.995453689628318 assign[6,12]
   + 2.590128290420383 assign[6,13] + 1.023371527893963 assign[6,14]
   + 3.423533427955485 assign[6,15] + 6.005952090611772 assign[6,16]
   + 1.819024368133392 assign[6,17] + 3.950861354842072 assign[6,18]
   + 0.407611751798762 assign[6,19] - slack[6] <= 0
 Capacity[7]: - open[7] + 2.595796788108113 assign[7,0]
   + 2.595796788108113 assign[7,1] + 2.595796788108113 assign[7,2]
   + 2.595796788108113 assign[7,3] + 2.595796788108113 assign[7,4]
   + 2.595796788108113 assign[7,5] + 2.595796788108113 assign[7,6]
   + 2.595796788108113 assign[7,7] + 2.595796788108113 assign[7,8]
   + 2.595796788108113 assign[7,9] + 1.070200496087372 assign[7,10]
   + 0.6718308837096106 assign[7,11] + 4.995453689628318 assign[7,12]
   + 2.590128290420383 assign[7,13] + 1.023371527893963 assign[7,14]
   + 3.423533427955485 assign[7,15] + 6.005952090611772 assign[7,16]
   + 1.819024368133392 assign[7,17] + 3.950861354842072 assign[7,18]
   + 0.407611751798762 assign[7,19] - slack[7] <= 0
 TaskAssignment[0]: assign[0,0] + assign[1,0] + assign[2,0] + assign[3,0]
   + assign[4,0] + assign[5,0] + assign[6,0] + assign[7,0] = 1
 TaskAssignment[1]: assign[0,1] + assign[1,1] + assign[2,1] + assign[3,1]
   + assign[4,1] + assign[5,1] + assign[6,1] + assign[7,1] = 1
 TaskAssignment[2]: assign[0,2] + assign[1,2] + assign[2,2] + assign[3,2]
   + assign[4,2] + assign[5,2] + assign[6,2] + assign[7,2] = 1
 TaskAssignment[3]: assign[0,3] + assign[1,3] + assign[2,3] + assign[3,3]
   + assign[4,3] + assign[5,3] + assign[6,3] + assign[7,3] = 1
 TaskAssignment[4]: assign[0,4] + assign[1,4] + assign[2,4] + assign[3,4]
   + assign[4,4] + assign[5,4] + assign[6,4] + assign[7,4] = 1
 TaskAssignment[5]: assign[0,5] + assign[1,5] + assign[2,5] + assign[3,5]
   + assign[4,5] + assign[5,5] + assign[6,5] + assign[7,5] = 1
 TaskAssignment[6]: assign[0,6] + assign[1,6] + assign[2,6] + assign[3,6]
   + assign[4,6] + assign[5,6] + assign[6,6] + assign[7,6] = 1
 TaskAssignment[7]: assign[0,7] + assign[1,7] + assign[2,7] + assign[3,7]
   + assign[4,7] + assign[5,7] + assign[6,7] + assign[7,7] = 1
 TaskAssignment[8]: assign[0,8] + assign[1,8] + assign[2,8] + assign[3,8]
   + assign[4,8] + assign[5,8] + assign[6,8] + assign[7,8] = 1
 TaskAssignment[9]: assign[0,9] + assign[1,9] + assign[2,9] + assign[3,9]
   + assign[4,9] + assign[5,9] + assign[6,9] + assign[7,9] = 1
 TaskAssignment[10]: assign[0,10] + assign[1,10] + assign[2,10]
   + assign[3,10] + assign[4,10] + assign[5,10] + assign[6,10]
   + assign[7,10] = 1
 TaskAssignment[11]: assign[0,11] + assign[1,11] + assign[2,11]
   + assign[3,11] + assign[4,11] + assign[5,11] + assign[6,11]
   + assign[7,11] = 1
 TaskAssignment[12]: assign[0,12] + assign[1,12] + assign[2,12]
   + assign[3,12] + assign[4,12] + assign[5,12] + assign[6,12]
   + assign[7,12] = 1
 TaskAssignment[13]: assign[0,13] + assign[1,13] + assign[2,13]
   + assign[3,13] + assign[4,13] + assign[5,13] + assign[6,13]
   + assign[7,13] = 1
 TaskAssignment[14]: assign[0,14] + assign[1,14] + assign[2,14]
   + assign[3,14] + assign[4,14] + assign[5,14] + assign[6,14]
   + assign[7,14] = 1
 TaskAssignment[15]: assign[0,15] + assign[1,15] + assign[2,15]
   + assign[3,15] + assign[4,15] + assign[5,15] + assign[6,15]
   + assign[7,15] = 1
 TaskAssignment[16]: assign[0,16] + assign[1,16] + assign[2,16]
   + assign[3,16] + assign[4,16] + assign[5,16] + assign[6,16]
   + assign[7,16] = 1
 TaskAssignment[17]: assign[0,17] + assign[1,17] + assign[2,17]
   + assign[3,17] + assign[4,17] + assign[5,17] + assign[6,17]
   + assign[7,17] = 1
 TaskAssignment[18]: assign[0,18] + assign[1,18] + assign[2,18]
   + assign[3,18] + assign[4,18] + assign[5,18] + assign[6,18]
   + assign[7,18] = 1
 TaskAssignment[19]: assign[0,19] + assign[1,19] + assign[2,19]
   + assign[3,19] + assign[4,19] + assign[5,19] + assign[6,19]
   + assign[7,19] = 1
Bounds
Binaries
 open[0] open[1] open[2] open[3] open[4] open[5] open[6] open[7]
 assign[0,0] assign[0,1] assign[0,2] assign[0,3] assign[0,4] assign[0,5]
 assign[0,6] assign[0,7] assign[0,8] assign[0,9] assign[0,10] assign[0,11]
 assign[0,12] assign[0,13] assign[0,14] assign[0,15] assign[0,16]
 assign[0,17] assign[0,18] assign[0,19] assign[1,0] assign[1,1] assign[1,2]
 assign[1,3] assign[1,4] assign[1,5] assign[1,6] assign[1,7] assign[1,8]
 assign[1,9] assign[1,10] assign[1,11] assign[1,12] assign[1,13]
 assign[1,14] assign[1,15] assign[1,16] assign[1,17] assign[1,18]
 assign[1,19] assign[2,0] assign[2,1] assign[2,2] assign[2,3] assign[2,4]
 assign[2,5] assign[2,6] assign[2,7] assign[2,8] assign[2,9] assign[2,10]
 assign[2,11] assign[2,12] assign[2,13] assign[2,14] assign[2,15]
 assign[2,16] assign[2,17] assign[2,18] assign[2,19] assign[3,0]
 assign[3,1] assign[3,2] assign[3,3] assign[3,4] assign[3,5] assign[3,6]
 assign[3,7] assign[3,8] assign[3,9] assign[3,10] assign[3,11] assign[3,12]
 assign[3,13] assign[3,14] assign[3,15] assign[3,16] assign[3,17]
 assign[3,18] assign[3,19] assign[4,0] assign[4,1] assign[4,2] assign[4,3]
 assign[4,4] assign[4,5] assign[4,6] assign[4,7] assign[4,8] assign[4,9]
 assign[4,10] assign[4,11] assign[4,12] assign[4,13] assign[4,14]
 assign[4,15] assign[4,16] assign[4,17] assign[4,18] assign[4,19]
 assign[5,0] assign[5,1] assign[5,2] assign[5,3] assign[5,4] assign[5,5]
 assign[5,6] assign[5,7] assign[5,8] assign[5,9] assign[5,10] assign[5,11]
 assign[5,12] assign[5,13] assign[5,14] assign[5,15] assign[5,16]
 assign[5,17] assign[5,18] assign[5,19] assign[6,0] assign[6,1] assign[6,2]
 assign[6,3] assign[6,4] assign[6,5] assign[6,6] assign[6,7] assign[6,8]
 assign[6,9] assign[6,10] assign[6,11] assign[6,12] assign[6,13]
 assign[6,14] assign[6,15] assign[6,16] assign[6,17] assign[6,18]
 assign[6,19] assign[7,0] assign[7,1] assign[7,2] assign[7,3] assign[7,4]
 assign[7,5] assign[7,6] assign[7,7] assign[7,8] assign[7,9] assign[7,10]
 assign[7,11] assign[7,12] assign[7,13] assign[7,14] assign[7,15]
 assign[7,16] assign[7,17] assign[7,18] assign[7,19]
End
